db/data/31015519328290221593261415939244718256.z3.out
-------------------
2500.133330824
